
&CONTROL
title="Sibulk"
calculation='scf',
restart_mode = 'from_scratch',
tprnfor=.t.,
PSEUDO_DIR='/igor/marsamos/S3DE/sax/examples/pseudos/',
prefix='Sibulk',
/
 &SYSTEM
                       ibrav = 0,
                   celldm(1) = 10.2,
                         nat = 2,
                        ntyp = 1,
                     ecutwfc = 15.0 ,
			nosym=.true.,
                        nbnd = 36,
 /
 &ELECTRONS
 /
CELL_PARAMETERS cubic
-0.5	0.0	0.5
0.0	0.5	0.5
-0.5	0.5	0.0
ATOMIC_SPECIES
    Si    1.00000  Si.vbc.UPF
ATOMIC_POSITIONS crystal
Si      0.000000000     0.000000000     0.0000000000
Si	0.250000000	0.250000000	0.2500000000
K_POINTS crystal
   27
    0.166666667    0.166666667    0.166666667    0.037037037
    0.500000000    0.166666667    0.166666667    0.037037037
    0.833333333    0.166666667    0.166666667    0.037037037
    0.166666667    0.500000000    0.166666667    0.037037037
    0.500000000    0.500000000    0.166666667    0.037037037
    0.833333333    0.500000000    0.166666667    0.037037037
    0.166666667    0.833333333    0.166666667    0.037037037
    0.500000000    0.833333333    0.166666667    0.037037037
    0.833333333    0.833333333    0.166666667    0.037037037
    0.166666667    0.166666667    0.500000000    0.037037037
    0.500000000    0.166666667    0.500000000    0.037037037
    0.833333333    0.166666667    0.500000000    0.037037037
    0.166666667    0.500000000    0.500000000    0.037037037
    0.500000000    0.500000000    0.500000000    0.037037037
    0.833333333    0.500000000    0.500000000    0.037037037
    0.166666667    0.833333333    0.500000000    0.037037037
    0.500000000    0.833333333    0.500000000    0.037037037
    0.833333333    0.833333333    0.500000000    0.037037037
    0.166666667    0.166666667    0.833333333    0.037037037
    0.500000000    0.166666667    0.833333333    0.037037037
    0.833333333    0.166666667    0.833333333    0.037037037
    0.166666667    0.500000000    0.833333333    0.037037037
    0.500000000    0.500000000    0.833333333    0.037037037
    0.833333333    0.500000000    0.833333333    0.037037037
    0.166666667    0.833333333    0.833333333    0.037037037
    0.500000000    0.833333333    0.833333333    0.037037037
    0.833333333    0.833333333    0.833333333    0.037037037
